(declare-const |x':39| Int)
(declare-const |y':31| Int)
(declare-const |K:44| Int)
(assert (and (or (not (and (<= (- |K:44|) 0) (<= |K:44| 0))) (= |y':31| 0))
               (or (not (<= (+ (- |K:44|) 1) 0)) (= (+ |y':31| -10) 0))
               (or (not (<= (- |K:44|) 0)) (= (+ |x':39| (- |K:44|)) 0))
               (or (not (<= (- |K:44|) 0)) (<= (+ |y':31| (* -10 |K:44|)) 0))
               (or (and (= |K:44| 0) (= (- |y':31|) 0) (= (- |x':39|) 0))
                     (and (<= (+ (- |K:44|) 1) 0) (= (+ |y':31| -10) 0)
                            (<= (+ |x':39| -268435455) 0)
                            (<= (+ (- |x':39|) 1) 0))) (<= (- |K:44|) 0)
               (<= (- |y':31|) 0) (<= (- |x':39|) 0)
               (<= (+ (- |x':39|) 268435455) 0) (= (mod |x':39| 2) 0)))
(check-sat)
